unsat
(:SPACER-conj                         2
 :SPACER-inductive-gen                21
 :SPACER-inductive-gen-weaken-fail    29
 :SPACER-inductive-level              8
 :SPACER-max-depth                    8
 :SPACER-max-query-lvl                8
 :SPACER-non-local-gen                11
 :SPACER-num-active-lemmas            12
 :SPACER-num-cant-abstract            2
 :SPACER-num-ctp-blocked              10
 :SPACER-num-invariants               8
 :SPACER-num-is_invariant             65
 :SPACER-num-lemmas                   41
 :SPACER-num-pobs                     20
 :SPACER-num-propagations             39
 :SPACER-num-queries                  30
 :added-eqs                           1226
 :arith-assert-diseq                  680
 :arith-assert-lower                  2546
 :arith-assert-upper                  4106
 :arith-bound-prop                    100
 :arith-conflicts                     6
 :arith-eq-adapter                    116
 :arith-fixed-eqs                     250
 :arith-num-rows                      14
 :arith-offset-eqs                    68
 :arith-pivots                        174
 :arith-row-summations                40
 :arith-tableau-max-columns           50
 :arith-tableau-max-rows              14
 :conflicts                           434
 :decisions                           2156
 :del-clause                          442
 :final-checks                        134
 :iuc_solver.num_proxies              39
 :max-memory                          31.54
 :memory                              30.98
 :minimized-lits                      48
 :mk-bool-var                         1882
 :mk-clause                           1210
 :num-allocs                          21724648
 :num-checks                          428
 :pool_solver.checks                  214
 :pool_solver.checks.sat              67
 :propagations                        17424
 :rlimit-count                        73838
 :time                                0.12
 :time.iuc_solver.get_iuc             0.02
 :time.iuc_solver.get_iuc.hyp_reduce1 0.00
 :time.iuc_solver.get_iuc.hyp_reduce2 0.01
 :time.iuc_solver.get_iuc.learn_core  0.00
 :time.pool_solver.proof              0.00
 :time.pool_solver.smt.total          0.04
 :time.pool_solver.smt.total.sat      0.01
 :time.spacer.init_rules              0.00
 :time.spacer.mbp                     0.00
 :time.spacer.solve                   0.10
 :time.spacer.solve.propagate         0.02
 :time.spacer.solve.reach             0.09
 :time.spacer.solve.reach.children    0.01
 :time.spacer.solve.reach.cluster     0.01
 :time.spacer.solve.reach.gen.global  0.01
 :time.spacer.solve.reach.gen.ind     0.01)
(:max-memory   31.54
 :memory       30.98
 :num-allocs   21724648
 :rlimit-count 73838
 :time         0.12
 :total-time   0.14)
